Fatranská
04	57
05	12	25	37	47	57
06	07	17	27	37	47	57
07	07	17	27	42	59
08	17	37	57
09	17	37	57
10	17	37	57
11	17	37	57
12	17	37	57
13	17	27	37	47	57
14	07	17	27	37	47	57
15	07	17	27	37	47	57
16	07	22	37	52
17	07	22	37	52
18	07	22	37	57
19	17	37	57
20	22	47
21	12	37
22	05	22

04	57
05	12	27	42	54
06	06	18	30	42	54
07	06	18	30	42	57
08	17	37	57
09	17	37	57
10	17	37	57
11	17	37	57
12	17	37	57
13	17	32	47
14	02	17	32	47
15	02	17	32	47
16	02	17	32	47
17	02	17	32	47
18	02	17	37	57
19	17	37	57
20	22	47
21	12	37
22	05	22

04	57
05	22	47
06	17	42
07	07	32	57
08	17	37	57
09	17	37	57
10	17	37	57
11	17	37	57
12	17	37	57
13	17	37	57
14	17	37	57
15	17	37	57
16	17	37	57
17	17	37	57
18	17	37	57
19	17	37	57
20	22	47
21	12	37
22	12
Matice slovenskej
04	59
05	14	27	39	49	59
06	09	19	29	39	49	59
07	09	19	29	44
08	01	19	39	59
09	19	39	59
10	19	39	59
11	19	39	59
12	19	39	59
13	19	29	39	49	59
14	09	19	29	39	49	59
15	09	19	29	39	49	59
16	09	24	39	54
17	09	24	39	54
18	09	24	39	59
19	19	39	59
20	24	49
21	14	39
22	07	24

04	59
05	14	29	44	56
06	08	20	32	44	56
07	08	20	32	44	59
08	19	39	59
09	19	39	59
10	19	39	59
11	19	39	59
12	19	39	59
13	19	34	49
14	04	19	34	49
15	04	19	34	49
16	04	19	34	49
17	04	19	34	49
18	04	19	39	59
19	19	39	59
20	24	49
21	14	39
22	07	24

04	59
05	24	49
06	19	44
07	09	34	59
08	19	39	59
09	19	39	59
10	19	39	59
11	19	39	59
12	19	39	59
13	19	39	59
14	19	39	59
15	19	39	59
16	19	39	59
17	19	39	59
18	19	39	59
19	19	39	59
20	24	49
21	14	39
22	14
Obchodná
05	01	16	29	41	51
06	01	11	21	31	41	51
07	01	11	21	31	46
08	03	21	41
09	01	21	41
10	01	21	41
11	01	21	41
12	01	21	41
13	01	21	31	41	51
14	01	11	21	31	41	51
15	01	11	21	31	41	51
16	01	11	26	41	56
17	11	26	41	56
18	11	26	41
19	01	21	41
20	01	26	51
21	16	41
22	09	26

05	01	16	31	46	58
06	10	22	34	46	58
07	10	22	34	46
08	01	21	41
09	01	21	41
10	01	21	41
11	01	21	41
12	01	21	41
13	01	21	36	51
14	06	21	36	51
15	06	21	36	51
16	06	21	36	51
17	06	21	36	51
18	06	21	41
19	01	21	41
20	01	26	51
21	16	41
22	09	26

05	01	26	51
06	21	46
07	11	36
08	01	21	41
09	01	21	41
10	01	21	41
11	01	21	41
12	01	21	41
13	01	21	41
14	01	21	41
15	01	21	41
16	01	21	41
17	01	21	41
18	01	21	41
19	01	21	41
20	01	26	51
21	16	41
22	16
Sv. Cyrila a Metoda
05	03	18	31	43	53
06	03	13	23	33	43	53
07	03	13	23	33	48
08	05	23	43
09	03	23	43
10	03	23	43
11	03	23	43
12	03	23	43
13	03	23	33	43	53
14	03	13	23	33	43	53
15	03	13	23	33	43	53
16	03	13	28	43	58
17	13	28	43	58
18	13	28	43
19	03	23	43
20	03	28	53
21	18	43
22	11	28

05	03	18	33	48
06	00	12	24	36	48
07	00	12	24	36	48
08	03	23	43
09	03	23	43
10	03	23	43
11	03	23	43
12	03	23	43
13	03	23	38	53
14	08	23	38	53
15	08	23	38	53
16	08	23	38	53
17	08	23	38	53
18	08	23	43
19	03	23	43
20	03	28	53
21	18	43
22	11	28

05	03	28	53
06	23	48
07	13	38
08	03	23	43
09	03	23	43
10	03	23	43
11	03	23	43
12	03	23	43
13	03	23	43
14	03	23	43
15	03	23	43
16	03	23	43
17	03	23	43
18	03	23	43
19	03	23	43
20	03	28	53
21	18	43
22	18
Košická, TESCO hypermarket
05	06	21	34	46	56
06	06	16	26	36	46	56
07	06	16	26	36	51
08	08	26	46
09	06	26	46
10	06	26	46
11	06	26	46
12	06	26	46
13	06	26	36	46	56
14	06	16	26	36	46	56
15	06	16	26	36	46	56
16	06	16	31	46
17	01	16	31	46
18	01	16	31	46
19	06	26	46
20	06	31	56
21	21	46
22	14	31

05	06	21	36	51
06	03	15	27	39	51
07	03	15	27	39	51
08	06	26	46
09	06	26	46
10	06	26	46
11	06	26	46
12	06	26	46
13	06	26	41	56
14	11	26	41	56
15	11	26	41	56
16	11	26	41	56
17	11	26	41	56
18	11	26	46
19	06	26	46
20	06	31	56
21	21	46
22	14	31

05	06	31	56
06	26	51
07	16	41
08	06	26	46
09	06	26	46
10	06	26	46
11	06	26	46
12	06	26	46
13	06	26	46
14	06	26	46
15	06	26	46
16	06	26	46
17	06	26	46
18	06	26	46
19	06	26	46
20	06	31	56
21	21	46
22	21
Predmestská
05	08	23	36	48	58
06	08	18	28	38	48	58
07	08	18	28	38	53
08	10	28	48
09	08	28	48
10	08	28	48
11	08	28	48
12	08	28	48
13	08	28	38	48	58
14	08	18	28	38	48	58
15	08	18	28	38	48	58
16	08	18	33	48
17	03	18	33	48
18	03	18	33	48
19	08	28	48
20	08	33	58
21	23	48
22	16	33

05	08	23	38	53
06	05	17	29	41	53
07	05	17	29	41	53
08	08	28	48
09	08	28	48
10	08	28	48
11	08	28	48
12	08	28	48
13	08	28	43	58
14	13	28	43	58
15	13	28	43	58
16	13	28	43	58
17	13	28	43	58
18	13	28	48
19	08	28	48
20	08	33	58
21	23	48
22	16	33

05	08	33	58
06	28	53
07	18	43
08	08	28	48
09	08	28	48
10	08	28	48
11	08	28	48
12	08	28	48
13	08	28	48
14	08	28	48
15	08	28	48
16	08	28	48
17	08	28	48
18	08	28	48
19	08	28	48
20	08	33	58
21	23	48
22	23
Štefánikovo nám.
05	10	25	38	50
06	00	10	20	30	40	50
07	00	10	20	30	40	55
08	12	30	50
09	10	30	50
10	10	30	50
11	10	30	50
12	10	30	50
13	10	30	40	50
14	00	10	20	30	40	50
15	00	10	20	30	40	50
16	00	10	20	35	50
17	05	20	35	50
18	05	20	35	50
19	10	30	50
20	10	35
21	00	25	50
22	18	35

05	10	25	40	55
06	07	19	31	43	55
07	07	19	31	43	55
08	10	30	50
09	10	30	50
10	10	30	50
11	10	30	50
12	10	30	50
13	10	30	45
14	00	15	30	45
15	00	15	30	45
16	00	15	30	45
17	00	15	30	45
18	00	15	30	50
19	10	30	50
20	10	35
21	00	25	50
22	18	35

05	10	35
06	00	30	55
07	20	45
08	10	30	50
09	10	30	50
10	10	30	50
11	10	30	50
12	10	30	50
13	10	30	50
14	10	30	50
15	10	30	50
16	10	30	50
17	10	30	50
18	10	30	50
19	10	30	50
20	10	35
21	00	25	50
22	25
Železničná stanica
05	12	27	40	52
06	02	12	22	32	42	52
07	02	12	22	32	42	57
08	14	32	52
09	12	32	52
10	12	32	52
11	12	32	52
12	12	32	52
13	12	32	42	52
14	02	12	22	32	42	52
15	02	12	22	32	42	52
16	02	12	22	37	52
17	07	22	37	52
18	07	22	37	52
19	12	32	52
20	12	37
21	02	27	52
22	20	37

05	12	27	42	57
06	09	21	33	45	57
07	09	21	33	45	57
08	12	32	52
09	12	32	52
10	12	32	52
11	12	32	52
12	12	32	52
13	12	32	47
14	02	17	32	47
15	02	17	32	47
16	02	17	32	47
17	02	17	32	47
18	02	17	32	52
19	12	32	52
20	12	37
21	02	27	52
22	20	37

05	12	37
06	02	32	57
07	22	47
08	12	32	52
09	12	32	52
10	12	32	52
11	12	32	52
12	12	32	52
13	12	32	52
14	12	32	52
15	12	32	52
16	12	32	52
17	12	32	32	52
18	12	32	52
19	12	32	32  52
20	12	37
21	02	27	27	52
22	27
Hurbanova
05	15	30	43	55
06	05	15	25	35	45	55
07	05	15	25	35	45
08	00	17	35	55
09	15	35	55
10	15	35	55
11	15	35	55
12	15	35	55
13	15	35	45	55
14	05	15	25	35	45	55
15	05	15	25	35	45	55
16	05	15	25	40	55
17	10	25	40	55
18	10	25	40	55
19	15	35	55
20	15	40
21	05	30	55
22	23	40

05	15	30	45
06	00	12	24	36	48
07	00	12	24	36	48
08	00	15	35	55
09	15	35	55
10	15	35	55
11	15	35	55
12	15	35	55
13	15	35	50
14	05	20	35	50
15	05	20	35	50
16	05	20	35	50
17	05	20	35	50
18	05	20	35	55
19	15	35	55
20	15	40
21	05	30	55
22	23	40

05	15	40
06	05	35
07	00	25	50
08	15	35	55
09	15	35	55
10	15	35	55
11	15	35	55
12	15	35	55
13	15	35	55
14	15	35	55
15	15	35	55
16	15	35	55
17	15	35	55
18	15	35	55
19	15	35	55
20	15	40
21	05	30	55
22	30
Polícia
05	17	32	45	57
06	07	17	27	37	47	57
07	07	17	27	37	47
08	02	19	37	57
09	17	37	57
10	17	37	57
11	17	37	57
12	17	37	57
13	17	37	47	57
14	07	17	27	37	47	57
15	07	17	27	37	47	57
16	07	17	27	42	57
17	12	27	42	57
18	12	27	42	57
19	17	37	57
20	17	42
21	07	32	57
22	25	42

05	17	32	47
06	02	14	26	38	50
07	02	14	26	38	50
08	02	17	37	57
09	17	37	57
10	17	37	57
11	17	37	57
12	17	37	57
13	17	37	52
14	07	22	37	52
15	07	22	37	52
16	07	22	37	52
17	07	22	37	52
18	07	22	37	57
19	17	37	57
20	17	42
21	07	32	57
22	25	42

05	17	42
06	07	37
07	02	27	52
08	17	37	57
09	17	37	57
10	17	37	57
11	17	37	57
12	17	37	57
13	17	37	57
14	17	37	57
15	17	37	57
16	17	37	57
17	17	37	57
18	17	37	57
19	17	37	57
20	17	42
21	07	32	57
22	32
Komenského
05	19	34	47	59
06	09	19	29	39	49	59
07	09	19	29	39	49
08	04	21	39	59
09	19	39	59
10	19	39	59
11	19	39	59
12	19	39	59
13	19	39	49	59
14	09	19	29	39	49	59
15	09	19	29	39	49	59
16	09	19	29	44	59
17	14	29	44	59
18	14	29	44	59
19	19	39	59
20	19	44
21	09	34	59
22	27	44

05	19	34	49
06	04	16	28	40	52
07	04	16	28	40	52
08	04	19	39	59
09	19	39	59
10	19	39	59
11	19	39	59
12	19	39	59
13	19	39	54
14	09	24	39	54
15	09	24	39	54
16	09	24	39	54
17	09	24	39	54
18	09	24	39	59
19	19	39	59
20	19	44
21	09	34	59
22	27	44

05	19	44
06	09	39
07	04	29	54
08	19	39	59
09	19	39	59
10	19	39	59
11	19	39	59
12	19	39	59
13	19	39	59
14	19	39	59
15	19	39	59
16	19	39	59
17	19	39	59
18	19	39	59
19	19	39	59
20	19	44
21	09	34	59
22	34
Mostná
05	21	36	49
06	01	11	21	31	41	51
07	01	11	21	31	41	51
08	06	23	41
09	01	21	41
10	01	21	41
11	01	21	41
12	01	21	41
13	01	21	41	51
14	01	11	21	31	41	51
15	01	11	21	31	41	51
16	01	11	21	31	46
17	01	16	31	46
18	01	16	31	46
19	00	20	40
20	00	20	45
21	10	35
22	00	28	45

05	21	36	51
06	06	18	30	42	54
07	06	18	30	42	54
08	06	21	41
09	01	21	41
10	01	21	41
11	01	21	41
12	01	21	41
13	01	21	41	56
14	11	26	41	56
15	11	26	41	56
16	11	26	41	56
17	11	26	41	56
18	11	25	40
19	00	20	40
20	00	20	45
21	10	35
22	00	28	45

05	20	45
06	10	40
07	05	30	55
08	20	40
09	00	20	40
10	00	20	40
11	00	20	40
12	00	20	40
13	00	20	40
14	00	20	40
15	00	20	40
16	00	20	40
17	00	20	40
18	00	20	40
19	00	20	40
20	00	20	45
21	10	35
22	00	35
Hlinská
05	22	37	50
06	02	12	22	32	42	52
07	02	12	22	32	42	52
08	07	24	42
09	02	22	42
10	02	22	42
11	02	22	42
12	02	22	42
13	02	22	42	52
14	02	12	22	32	42	52
15	02	12	22	32	42	52
16	02	12	22	32	47
17	02	17	32	47
18	02	17	32	47
19	01	21	41
20	01	21	46
21	11	36
22	01	29	46

05	22	37	52
06	07	19	31	43	55
07	07	19	31	43	55
08	07	22	42
09	02	22	42
10	02	22	42
11	02	22	42
12	02	22	42
13	02	22	42	57
14	12	27	42	57
15	12	27	42	57
16	12	27	42	57
17	12	27	42	57
18	12	26	41
19	01	21	41
20	01	21	46
21	11	36
22	01	29	46

05	21	46
06	11	41
07	06	31	56
08	21	41
09	01	21	41
10	01	21	41
11	01	21	41
12	01	21	41
13	01	21	41
14	01	21	41
15	01	21	41
16	01	21	41
17	01	21	41
18	01	21	41
19	01	21	41
20	01	21	46
21	11	36
22	01	36
Poľná
05	23	38	51
06	03	13	23	33	43	53
07	03	13	23	33	43	53
08	08	25	43
09	03	23	43
10	03	23	43
11	03	23	43
12	03	23	43
13	03	23	43	53
14	03	13	23	33	43	53
15	03	13	23	33	43	53
16	03	13	23	33	48
17	03	18	33	48
18	03	18	33	48
19	02	22	42
20	02	22	47
21	12	37
22	02	30	47

05	23	38	53
06	08	20	32	44	56
07	08	20	32	44	56
08	08	23	43
09	03	23	43
10	03	23	43
11	03	23	43
12	03	23	43
13	03	23	43	58
14	13	28	43	58
15	13	28	43	58
16	13	28	43	58
17	13	28	43	58
18	13	27	42
19	02	22	42
20	02	22	47
21	12	37
22	02	30	47

05	22	47
06	12	42
07	07	32	57
08	22	42
09	02	22	42
10	02	22	42
11	02	22	42
12	02	22	42
13	02	22	42
14	02	22	42
15	02	22	42
16	02	22	42
17	02	22	42
18	02	22	42
19	02	22	42
20	02	22	47
21	12	37
22	02	37
Smreková
05	25	40	53
06	05	15	25	35	45	55
07	05	15	25	35	45	55
08	10	27	45
09	05	25	45
10	05	25	45
11	05	25	45
12	05	25	45
13	05	25	45	55
14	05	15	25	35	45	55
15	05	15	25	35	45	55
16	05	15	25	35	50
17	05	20	35	50
18	05	20	35	50
19	04	24	44
20	04	24	49
21	14	39
22	04	32	49

05	25	40	55
06	10	22	34	46	58
07	10	22	34	46	58
08	10	25	45
09	05	25	45
10	05	25	45
11	05	25	45
12	05	25	45
13	05	25	45
14	00	15	30	45
15	00	15	30	45
16	00	15	30	45
17	00	15	30	45
18	00	15	29	44
19	04	24	44
20	04	24	49
21	14	39
22	04	32	49

05	24	49
06	14	44
07	09	34	59
08	24	44
09	04	24	44
10	04	24	44
11	04	24	44
12	04	24	44
13	04	24	44
14	04	24	44
15	04	24	44
16	04	24	44
17	04	24	44
18	04	24	44
19	04	24	44
20	04	24	49
21	14	39
22	04	39
Limbová
05	26	41	54
06	06	16	26	36	46	56
07	06	16	26	36	46	56
08	11	28	46
09	06	26	46
10	06	26	46
11	06	26	46
12	06	26	46
13	06	26	46	56
14	06	16	26	36	46	56
15	06	16	26	36	46	56
16	06	16	26	36	51
17	06	21	36	51
18	06	21	36	51
19	05	25	45
20	05	25	50
21	15	40
22	05	33	50

05	26	41	56
06	11	23	35	47	59
07	11	23	35	47	59
08	11	26	46
09	06	26	46
10	06	26	46
11	06	26	46
12	06	26	46
13	06	26	46
14	01	16	31	46
15	01	16	31	46
16	01	16	31	46
17	01	16	31	46
18	01	16	30	45
19	05	25	45
20	05	25	50
21	15	40
22	05	33	50

05	25	50
06	15	45
07	10	35
08	00	25	45
09	05	25	45
10	05	25	45
11	05	25	45
12	05	25	45
13	05	25	45
14	05	25	45
15	05	25	45
16	05	25	45
17	05	25	45
18	05	25	45
19	05	25	45
20	05	25	50
21	15	40
22	05	40
Jaseňová
05	28	43	56
06	08	18	28	38	48	58
07	08	18	28	38	48	58
08	13	30	48
09	08	28	48
10	08	28	48
11	08	28	48
12	08	28	48
13	08	28	48	58
14	08	18	28	38	48	58
15	08	18	28	38	48	58
16	08	18	28	38	53
17	08	23	38	53
18	08	23	38	53
19	07	27	47
20	07	27	52
21	17	42
22	07	35	52

05	28	43	58
06	13	25	37	49
07	01	13	25	37	49
08	01	13	28	48
09	08	28	48
10	08	28	48
11	08	28	48
12	08	28	48
13	08	28	48
14	03	18	33	48
15	03	18	33	48
16	03	18	33	48
17	03	18	33	48
18	03	18	32	47
19	07	27	47
20	07	27	52
21	17	42
22	07	35	52

05	27	52
06	17	47
07	12	37
08	02	27	47
09	07	27	47
10	07	27	47
11	07	27	47
12	07	27	47
13	07	27	47
14	07	27	47
15	07	27	47
16	07	27	47
17	07	27	47
18	07	27	47
19	07	27	47
20	07	27	52
21	17	42
22	07	42
Pod hájom
05	29	44	57
06	09	19	29	39	49	59
07	09	19	29	39	49	59
08	14	31	49
09	09	29	49
10	09	29	49
11	09	29	49
12	09	29	49
13	09	29	49	59
14	09	19	29	39	49	59
15	09	19	29	39	49	59
16	09	19	29	39	54
17	09	24	39	54
18	09	24	39	54
19	08	28	48
20	08	28	53
21	18	43
22	08	36	53

05	29	44	59
06	14	26	38	50
07	02	14	26	38	50
08	02	14	29	49
09	09	29	49
10	09	29	49
11	09	29	49
12	09	29	49
13	09	29	49
14	04	19	34	49
15	04	19	34	49
16	04	19	34	49
17	04	19	34	49
18	04	19	33	48
19	08	28	48
20	08	28	53
21	18	43
22	08	36	53

05	28	53
06	18	48
07	13	38
08	03	28	48
09	08	28	48
10	08	28	48
11	08	28	48
12	08	28	48
13	08	28	48
14	08	28	48
15	08	28	48
16	08	28	48
17	08	28	48
18	08	28	48
19	08	28	48
20	08	28	53
21	18	43
22	08	43
Žilinská univerzita
05	31	46	59
06	11	21	31	41	51
07	01	11	21	31	41	51
08	01	16	33	51
09	11	31	51
10	11	31	51
11	11	31	51
12	11	31	51
13	11	31	51
14	01	11	21	31	41	51
15	01	11	21	31	41	51
16	01	11	21	31	41	56
17	11	26	41	56
18	11	26	41	56
19	09	29	49
20	09	29	54
21	19	44
22	09	37	54

05	31	46
06	01	16	28	40	52
07	04	16	28	40	52
08	04	16	31	51
09	11	31	51
10	11	31	51
11	11	31	51
12	11	31	51
13	11	31	51
14	06	21	36	51
15	06	21	36	51
16	06	21	36	51
17	06	21	36	51
18	06	21	34	49
19	09	29	49
20	09	29	54
21	19	44
22	09	37	54

05	29	54
06	19	49
07	14	39
08	04	29	49
09	09	29	49
10	09	29	49
11	09	29	49
12	09	29	49
13	09	29	49
14	09	29	49
15	09	29	49
16	09	29	49
17	09	29	49
18	09	29	49
19	09	29	49
20	09	29	54
21	19	44
22	09	44
Fatranská
05	34	49
06	02	14	24	34	44	54
07	04	14	24	34	44	54
08	04	19	36	54
09	14	34	54
10	14	34	54
11	14	34	54
12	14	34	54
13	14	34	54
14	04	14	24	34	44	54
15	04	14	24	34	44	54
16	04	14	24	34	44	59
17	14	29	44	59
18	14	29	44	59
19	11	31	51
20	11	31	56
21	21	46
22	11	39	56

05	34	49
06	04	19	31	43	55
07	07	19	31	43	55
08	07	19	34	54
09	14	34	54
10	14	34	54
11	14	34	54
12	14	34	54
13	14	34	54
14	09	24	39	54
15	09	24	39	54
16	09	24	39	54
17	09	24	39	54
18	09	24	36	51
19	11	31	51
20	11	31	56
21	21	46
22	11	39	56

05	31	56
06	21	51
07	16	41
08	06	31	51
09	11	31	51
10	11	31	51
11	11	31	51
12	11	31	51
13	11	31	51
14	11	31	51
15	11	31	51
16	11	31	51
17	11	31	51
18	11	31	51
19	11	31	51
20	11	31	56
21	21	46
22	11	46